<?xml version="1.0" encoding="UTF-8"?><osil xmlns="os.optimizationservices.org"   xmlns:xsi="http://www.w3.org/2001/XMLSchema-instance" xsi:schemaLocation="os.optimizationservices.org http://www.optimizationservices.org/schemas/2.0/OSiL.xsd" ><instanceHeader><name>pointpack06</name></instanceHeader><instanceData><variables numberOfVariables="13"><var name="x1" lb=".5" ub="1"/><var name="x2" lb=".5" ub="1"/><var name="x3" lb=".5" ub="1"/><var name="x4" ub="1"/><var name="x5" ub="1"/><var name="x6" ub="1"/><var name="x7" ub="1"/><var name="x8" ub="1"/><var name="x9" ub="1"/><var name="x10" ub="1"/><var name="x11" ub="1"/><var name="x12" ub="1"/><var name="objvar" lb="-INF"/></variables><objectives numberOfObjectives="1"><obj maxOrMin="max" name="e15" numberOfObjCoef="1"><coef idx="12">1</coef></obj></objectives><constraints numberOfConstraints="21"><con name="e1" ub="0"/><con name="e2" ub="0"/><con name="e3" ub="0"/><con name="e4" ub="0"/><con name="e5" ub="0"/><con name="e6" ub="0"/><con name="e7" ub="0"/><con name="e8" ub="0"/><con name="e9" ub="0"/><con name="e10" ub="0"/><con name="e11" ub="0"/><con name="e12" ub="0"/><con name="e13" ub="0"/><con name="e14" ub="0"/><con name="e15" ub="0"/><con name="e16" ub="0"/><con name="e17" ub="0"/><con name="e18" ub="0"/><con name="e19" ub="0"/><con name="e20" ub="0"/><con name="e21" ub="0"/></constraints><linearConstraintCoefficients numberOfValues="27"><start><el mult="16" incr="1">0</el><el mult="6" incr="2">17</el></start><colIdx><el mult="15">12</el><el mult="2" incr="1">6</el><el mult="2" incr="1">0</el><el mult="2" incr="1">1</el><el mult="2" incr="1">2</el><el mult="2" incr="1">3</el><el mult="2" incr="1">4</el></colIdx><value><el mult="15">1</el><el>-1</el><el>1</el><el>-1</el><el>1</el><el>-1</el><el>1</el><el>-1</el><el>1</el><el>-1</el><el>1</el><el>-1</el><el>1</el></value></linearConstraintCoefficients><quadraticCoefficients  numberOfQuadraticTerms="90" ><qTerm  idx="0"  idxOne="0"  idxTwo="0"  coef="-1"/><qTerm  idx="0"  idxOne="0"  idxTwo="1"  coef="2"/><qTerm  idx="0"  idxOne="1"  idxTwo="1"  coef="-1"/><qTerm  idx="0"  idxOne="6"  idxTwo="6"  coef="-1"/><qTerm  idx="0"  idxOne="6"  idxTwo="7"  coef="2"/><qTerm  idx="0"  idxOne="7"  idxTwo="7"  coef="-1"/><qTerm  idx="1"  idxOne="0"  idxTwo="0"  coef="-1"/><qTerm  idx="1"  idxOne="0"  idxTwo="2"  coef="2"/><qTerm  idx="1"  idxOne="2"  idxTwo="2"  coef="-1"/><qTerm  idx="1"  idxOne="6"  idxTwo="6"  coef="-1"/><qTerm  idx="1"  idxOne="6"  idxTwo="8"  coef="2"/><qTerm  idx="1"  idxOne="8"  idxTwo="8"  coef="-1"/><qTerm  idx="2"  idxOne="0"  idxTwo="0"  coef="-1"/><qTerm  idx="2"  idxOne="0"  idxTwo="3"  coef="2"/><qTerm  idx="2"  idxOne="3"  idxTwo="3"  coef="-1"/><qTerm  idx="2"  idxOne="6"  idxTwo="6"  coef="-1"/><qTerm  idx="2"  idxOne="6"  idxTwo="9"  coef="2"/><qTerm  idx="2"  idxOne="9"  idxTwo="9"  coef="-1"/><qTerm  idx="3"  idxOne="0"  idxTwo="0"  coef="-1"/><qTerm  idx="3"  idxOne="0"  idxTwo="4"  coef="2"/><qTerm  idx="3"  idxOne="4"  idxTwo="4"  coef="-1"/><qTerm  idx="3"  idxOne="6"  idxTwo="6"  coef="-1"/><qTerm  idx="3"  idxOne="6"  idxTwo="10"  coef="2"/><qTerm  idx="3"  idxOne="10"  idxTwo="10"  coef="-1"/><qTerm  idx="4"  idxOne="0"  idxTwo="0"  coef="-1"/><qTerm  idx="4"  idxOne="0"  idxTwo="5"  coef="2"/><qTerm  idx="4"  idxOne="5"  idxTwo="5"  coef="-1"/><qTerm  idx="4"  idxOne="6"  idxTwo="6"  coef="-1"/><qTerm  idx="4"  idxOne="6"  idxTwo="11"  coef="2"/><qTerm  idx="4"  idxOne="11"  idxTwo="11"  coef="-1"/><qTerm  idx="5"  idxOne="1"  idxTwo="1"  coef="-1"/><qTerm  idx="5"  idxOne="1"  idxTwo="2"  coef="2"/><qTerm  idx="5"  idxOne="2"  idxTwo="2"  coef="-1"/><qTerm  idx="5"  idxOne="7"  idxTwo="7"  coef="-1"/><qTerm  idx="5"  idxOne="7"  idxTwo="8"  coef="2"/><qTerm  idx="5"  idxOne="8"  idxTwo="8"  coef="-1"/><qTerm  idx="6"  idxOne="1"  idxTwo="1"  coef="-1"/><qTerm  idx="6"  idxOne="1"  idxTwo="3"  coef="2"/><qTerm  idx="6"  idxOne="3"  idxTwo="3"  coef="-1"/><qTerm  idx="6"  idxOne="7"  idxTwo="7"  coef="-1"/><qTerm  idx="6"  idxOne="7"  idxTwo="9"  coef="2"/><qTerm  idx="6"  idxOne="9"  idxTwo="9"  coef="-1"/><qTerm  idx="7"  idxOne="1"  idxTwo="1"  coef="-1"/><qTerm  idx="7"  idxOne="1"  idxTwo="4"  coef="2"/><qTerm  idx="7"  idxOne="4"  idxTwo="4"  coef="-1"/><qTerm  idx="7"  idxOne="7"  idxTwo="7"  coef="-1"/><qTerm  idx="7"  idxOne="7"  idxTwo="10"  coef="2"/><qTerm  idx="7"  idxOne="10"  idxTwo="10"  coef="-1"/><qTerm  idx="8"  idxOne="1"  idxTwo="1"  coef="-1"/><qTerm  idx="8"  idxOne="1"  idxTwo="5"  coef="2"/><qTerm  idx="8"  idxOne="5"  idxTwo="5"  coef="-1"/><qTerm  idx="8"  idxOne="7"  idxTwo="7"  coef="-1"/><qTerm  idx="8"  idxOne="7"  idxTwo="11"  coef="2"/><qTerm  idx="8"  idxOne="11"  idxTwo="11"  coef="-1"/><qTerm  idx="9"  idxOne="2"  idxTwo="2"  coef="-1"/><qTerm  idx="9"  idxOne="2"  idxTwo="3"  coef="2"/><qTerm  idx="9"  idxOne="3"  idxTwo="3"  coef="-1"/><qTerm  idx="9"  idxOne="8"  idxTwo="8"  coef="-1"/><qTerm  idx="9"  idxOne="8"  idxTwo="9"  coef="2"/><qTerm  idx="9"  idxOne="9"  idxTwo="9"  coef="-1"/><qTerm  idx="10"  idxOne="2"  idxTwo="2"  coef="-1"/><qTerm  idx="10"  idxOne="2"  idxTwo="4"  coef="2"/><qTerm  idx="10"  idxOne="4"  idxTwo="4"  coef="-1"/><qTerm  idx="10"  idxOne="8"  idxTwo="8"  coef="-1"/><qTerm  idx="10"  idxOne="8"  idxTwo="10"  coef="2"/><qTerm  idx="10"  idxOne="10"  idxTwo="10"  coef="-1"/><qTerm  idx="11"  idxOne="2"  idxTwo="2"  coef="-1"/><qTerm  idx="11"  idxOne="2"  idxTwo="5"  coef="2"/><qTerm  idx="11"  idxOne="5"  idxTwo="5"  coef="-1"/><qTerm  idx="11"  idxOne="8"  idxTwo="8"  coef="-1"/><qTerm  idx="11"  idxOne="8"  idxTwo="11"  coef="2"/><qTerm  idx="11"  idxOne="11"  idxTwo="11"  coef="-1"/><qTerm  idx="12"  idxOne="3"  idxTwo="3"  coef="-1"/><qTerm  idx="12"  idxOne="3"  idxTwo="4"  coef="2"/><qTerm  idx="12"  idxOne="4"  idxTwo="4"  coef="-1"/><qTerm  idx="12"  idxOne="9"  idxTwo="9"  coef="-1"/><qTerm  idx="12"  idxOne="9"  idxTwo="10"  coef="2"/><qTerm  idx="12"  idxOne="10"  idxTwo="10"  coef="-1"/><qTerm  idx="13"  idxOne="3"  idxTwo="3"  coef="-1"/><qTerm  idx="13"  idxOne="3"  idxTwo="5"  coef="2"/><qTerm  idx="13"  idxOne="5"  idxTwo="5"  coef="-1"/><qTerm  idx="13"  idxOne="9"  idxTwo="9"  coef="-1"/><qTerm  idx="13"  idxOne="9"  idxTwo="11"  coef="2"/><qTerm  idx="13"  idxOne="11"  idxTwo="11"  coef="-1"/><qTerm  idx="14"  idxOne="4"  idxTwo="4"  coef="-1"/><qTerm  idx="14"  idxOne="4"  idxTwo="5"  coef="2"/><qTerm  idx="14"  idxOne="5"  idxTwo="5"  coef="-1"/><qTerm  idx="14"  idxOne="10"  idxTwo="10"  coef="-1"/><qTerm  idx="14"  idxOne="10"  idxTwo="11"  coef="2"/><qTerm  idx="14"  idxOne="11"  idxTwo="11"  coef="-1"/></quadraticCoefficients></instanceData></osil>
